nServices=10;
nDrivers=6;
nBuses=8;
maxBuses=5;
startingTime=[1005 21 932 265 386 530 837 527 857 872];
durationTime=[72 74 118 100 75 113 49 115 96 60];
durationDist=[42 29 19 11 15 38 48 19 13 14];
passengers=[38 25 34 49 15 43 6 25 29 22];
capacity=[71 80 24 38 17 66 68 46];
costTime=[0.13 0.09 0.16 0.09 0.08 0.14 0.17 0.17];
costDist=[0.25 0.15 0.2 0.14 0.25 0.14 0.28 0.21];
maxTime=[287 285 268 254 246 279];
costBM=[0.15 0.17 0.13 0.18 0.11 0.15];
costEM=[0.25 0.25 0.26 0.29 0.26 0.26];
BM=[215 238 220 149 199 170];
